certificates/rado_a14_c66_N45.drat
-41 -45 0
d -41 -5 -45 0
17 -37 -44 -45 0
7 -43 0
-7 -44 -45 0
7 41 0
-45 0
5 -7 0
-7 0
39 0
2 0
13 0
-43 0
41 0
-1 0
-40 0
-3 0
11 0
19 0
5 0
33 0
16 0
8 0
35 0
25 0
27 0
31 0
21 0
-15 0
-23 0
-9 0
0
